instances/p2/p2_10_13-3.dzn
Alphabet = {A,C,G,T};
ns = 10;
nc = 13;
neighbours = [| I(C),I(A),Null,Null,Null,Null,Null,Null,Null,Null,Null,Null,Null | I(T),I(C),I(T),I(C),I(A),I(A),I(T),I(C),Null,Null,Null,Null,Null | I(T),I(C),I(A),Null,Null,Null,Null,Null,Null,Null,Null,Null,Null | I(G),I(T),I(G),I(C),I(C),I(T),I(A),I(G),I(C),Null,Null,Null,Null | I(G),I(T),I(C),I(T),I(G),Null,Null,Null,Null,Null,Null,Null,Null | I(T),I(A),I(G),I(A),I(T),I(G),I(G),I(T),I(T),I(G),I(G),I(A),I(G) | I(G),I(A),I(T),I(A),Null,Null,Null,Null,Null,Null,Null,Null,Null | I(A),I(T),I(G),I(T),I(A),I(A),I(A),I(T),I(C),I(T),I(G),Null,Null | I(A),I(A),I(C),I(G),I(C),I(A),I(T),I(A),I(C),I(G),I(T),I(G),Null | I(C),I(T),I(C),I(C),Null,Null,Null,Null,Null,Null,Null,Null,Null |];
